interdiction/MCDM/NO_CORR/GEN_FROM_60/19_ITEMS_1000_GEN/K5019W09.KNP.mps
NAME          BLANK   
ROWS
 N  OBJROW
 L  R0000000
COLUMNS
    C0000000  OBJROW     -736.         R0000000  606.        
    C0000001  OBJROW     -387.         R0000000  963.        
    C0000002  OBJROW     -376.         R0000000  354.        
    C0000003  OBJROW     -56.          R0000000  764.        
    C0000004  OBJROW     -144.         R0000000  430.        
    C0000005  OBJROW     -835.         R0000000  331.        
    C0000006  OBJROW     -407.         R0000000  119.        
    C0000007  OBJROW     -964.         R0000000  979.        
    C0000008  OBJROW     -244.         R0000000  369.        
    C0000009  OBJROW     -278.         R0000000  839.        
    C0000010  OBJROW     -210.         R0000000  13.         
    C0000011  OBJROW     -866.         R0000000  150.        
    C0000012  OBJROW     -817.         R0000000  845.        
    C0000013  OBJROW     -546.         R0000000  111.        
    C0000014  OBJROW     -288.         R0000000  102.        
    C0000015  OBJROW     -953.         R0000000  223.        
    C0000016  OBJROW     -288.         R0000000  315.        
    C0000017  OBJROW     -408.         R0000000  852.        
    C0000018  OBJROW     -763.         R0000000  911.        
RHS
    RHS       R0000000  14716.      
BOUNDS
 BV BOUND     C0000000  1.          
 BV BOUND     C0000001  1.          
 BV BOUND     C0000002  1.          
 BV BOUND     C0000003  1.          
 BV BOUND     C0000004  1.          
 BV BOUND     C0000005  1.          
 BV BOUND     C0000006  1.          
 BV BOUND     C0000007  1.          
 BV BOUND     C0000008  1.          
 BV BOUND     C0000009  1.          
 BV BOUND     C0000010  1.          
 BV BOUND     C0000011  1.          
 BV BOUND     C0000012  1.          
 BV BOUND     C0000013  1.          
 BV BOUND     C0000014  1.          
 BV BOUND     C0000015  1.          
 BV BOUND     C0000016  1.          
 BV BOUND     C0000017  1.          
 BV BOUND     C0000018  1.          
ENDATA
