data/MCDM/NO_CORR/GEN_FROM_60/19_ITEMS_1000_GEN/K5019W09.KNP.txt
N 19
M 20
LC 19
LC 20
LC 21
LC 22
LC 23
LC 24
LC 25
LC 26
LC 27
LC 28
LC 29
LC 30
LC 31
LC 32
LC 33
LC 34
LC 35
LC 36
LC 37
LR 1
LR 2
LR 3
LR 4
LR 5
LR 6
LR 7
LR 8
LR 9
LR 10
LR 11
LR 12
LR 13
LR 14
LR 15
LR 16
LR 17
LR 18
LR 19
LR 20
LO -736
LO -387
LO -376
LO -56
LO -144
LO -835
LO -407
LO -964
LO -244
LO -278
LO -210
LO -866
LO -817
LO -546
LO -288
LO -953
LO -288
LO -408
LO -763
OS 1
IC 874
IC 185
IC 314
IC 472
IC 798
IC 276
IC 602
IC 553
IC 553
IC 961
IC 15
IC 401
IC 82
IC 371
IC 381
IC 621
IC 998
IC 869
IC 766
IB 5046
